p tw 1312 1975
1 2
1 127
3 4
3 128
5 6
5 129
7 8
7 130
9 10
9 97
9 98
11 12
11 98
11 99
13 14
13 131
15 16
15 106
15 107
17 18
17 107
17 108
19 20
19 132
21 22
21 133
23 24
23 134
25 26
25 121
25 122
27 28
27 122
27 123
29 30
29 135
31 32
31 136
33 34
33 109
33 110
35 36
35 110
35 111
37 38
37 137
39 40
39 138
41 42
41 139
43 44
43 140
45 46
45 100
45 101
47 48
47 101
47 102
49 50
49 141
51 52
51 142
53 54
53 112
53 113
55 56
55 113
55 114
57 58
57 103
57 104
59 60
59 104
59 105
61 62
61 143
63 64
63 144
65 66
65 118
65 119
67 68
67 119
67 120
69 70
69 145
71 72
71 146
73 74
73 147
75 76
75 115
75 116
77 78
77 116
77 117
79 80
79 148
81 82
81 149
83 84
83 150
85 86
85 151
87 88
87 152
89 90
89 124
89 125
91 92
91 125
91 126
93 94
93 153
95 96
95 154
97 98
97 155
97 156
98 99
99 185
100 101
100 189
101 102
102 159
102 160
103 104
103 191
104 105
105 192
106 107
106 174
106 175
107 108
108 186
109 110
109 188
110 111
111 161
111 162
112 113
112 190
113 114
114 168
114 169
115 116
115 183
115 184
116 117
117 194
118 119
118 176
118 177
119 120
120 193
121 122
121 187
122 123
123 179
123 180
124 125
124 195
125 126
126 196
127 209
127 210
128 210
128 211
129 173
129 174
130 314
130 315
131 262
131 263
132 156
132 157
133 244
133 245
134 391
134 392
135 216
135 217
136 158
136 159
137 204
137 205
138 167
138 168
139 268
139 269
140 180
140 181
141 198
141 199
142 162
142 163
143 182
143 183
144 320
144 321
145 164
145 165
146 308
146 309
147 350
147 351
148 177
148 178
149 253
149 254
150 165
150 166
151 304
151 305
152 170
152 171
153 171
153 172
154 219
154 220
155 156
155 225
156 157
157 207
157 208
158 159
158 229
159 160
160 197
160 198
161 162
161 203
161 204
162 163
163 234
164 165
164 213
164 214
165 166
166 240
167 168
167 231
168 169
169 236
170 171
170 241
171 172
172 218
172 219
173 174
173 224
174 175
175 227
176 177
176 238
177 178
178 222
178 223
179 180
179 215
179 216
180 181
181 232
182 183
182 201
182 202
183 184
184 239
185 226
186 206
186 207
187 228
188 230
189 233
190 235
191 237
192 200
192 201
193 212
193 213
194 221
194 222
195 242
196 243
197 198
197 282
198 199
199 250
199 251
200 201
200 285
201 202
202 248
202 249
203 204
203 245
203 246
204 205
205 279
206 207
206 259
206 260
207 208
208 277
209 210
209 274
210 211
211 265
211 266
212 213
212 286
213 214
214 257
214 258
215 216
215 263
215 264
216 217
217 278
218 219
218 290
219 220
220 291
221 222
221 271
221 272
222 223
223 288
224 275
225 266
225 267
226 340
226 341
227 276
228 364
228 365
229 260
229 261
230 352
230 353
231 280
232 281
233 247
233 248
234 283
235 256
235 257
236 284
237 269
237 270
238 251
238 252
239 287
240 289
241 272
241 273
242 367
242 368
243 254
243 255
244 245
244 293
244 294
245 246
246 328
247 248
247 329
248 249
249 319
249 320
250 251
250 298
250 299
251 252
252 334
253 254
253 311
253 312
254 255
255 337
256 257
256 331
257 258
258 307
258 308
259 260
259 326
260 261
261 296
261 297
262 263
262 325
263 264
264 327
265 266
265 323
266 267
267 324
268 269
268 316
268 317
269 270
270 332
271 272
271 336
272 273
273 305
273 306
274 322
275 313
275 314
276 409
276 410
277 292
277 293
278 295
278 296
279 301
279 302
280 302
280 303
281 317
281 318
282 330
283 299
283 300
284 451
284 452
285 333
286 335
287 418
287 419
288 310
288 311
289 403
289 404
290 338
291 339
292 293
292 374
293 294
294 341
294 342
295 296
295 343
295 344
296 297
297 376
298 299
298 353
298 354
299 300
300 380
301 302
301 355
301 356
302 303
303 378
304 305
304 387
305 306
306 388
307 308
307 384
308 309
309 385
310 311
310 386
311 312
312 359
312 360
313 314
313 371
314 315
315 346
315 347
316 317
316 365
316 366
317 318
318 379
319 320
319 382
320 321
321 361
321 362
322 460
322 461
323 370
324 372
325 373
326 347
326 348
327 375
328 377
329 344
329 345
330 442
330 443
331 356
331 357
332 381
333 349
333 350
334 383
335 358
335 359
336 362
336 363
337 389
338 552
338 553
339 368
339 369
340 341
340 421
341 342
342 390
342 391
343 344
343 425
344 345
345 415
345 416
346 347
346 393
346 394
347 348
348 422
349 350
349 430
350 351
351 417
351 418
352 353
352 397
352 398
353 354
354 429
355 356
355 426
356 357
357 400
357 401
358 359
358 432
359 360
360 402
360 403
361 362
361 411
361 412
362 363
363 435
364 365
364 424
365 366
366 428
367 368
367 406
367 407
368 369
369 438
370 599
370 600
371 420
372 394
372 395
373 408
373 409
374 423
375 512
375 513
376 396
376 397
377 500
377 501
378 427
379 414
379 415
380 399
380 400
381 493
381 494
382 431
383 412
383 413
384 433
385 434
386 436
387 437
388 405
388 406
389 515
389 516
390 391
390 473
391 392
392 463
392 464
393 394
393 461
393 462
394 395
395 469
396 397
396 475
397 398
398 440
398 441
399 400
399 445
399 446
400 401
401 479
402 403
402 483
403 404
404 484
405 406
405 485
406 407
407 455
407 456
408 409
408 471
409 410
410 448
410 449
411 412
411 443
411 444
412 413
413 480
414 415
414 466
414 467
415 416
416 477
417 418
417 481
418 419
419 457
419 458
420 554
420 555
421 470
422 472
423 439
423 440
424 474
425 449
425 450
426 464
426 465
427 548
427 549
428 476
429 478
430 467
430 468
431 563
431 564
432 446
432 447
433 545
433 546
434 452
434 453
435 482
436 454
436 455
437 458
437 459
438 486
439 440
439 520
440 441
441 499
441 500
442 443
442 491
442 492
443 444
444 528
445 446
445 527
446 447
447 509
447 510
448 449
448 496
448 497
449 450
450 523
451 452
451 503
451 504
452 453
453 529
454 455
454 531
455 456
456 514
456 515
457 458
457 505
457 506
458 459
459 534
460 461
460 517
461 462
462 518
463 464
463 522
464 465
465 525
466 467
466 526
467 468
468 494
468 495
469 487
469 488
470 488
470 489
471 519
472 497
472 498
473 521
474 511
474 512
475 524
476 657
476 658
477 490
477 491
478 587
478 588
479 502
479 503
480 508
480 509
481 530
482 506
482 507
483 532
484 533
485 535
486 608
486 609
487 488
487 536
487 537
488 489
489 568
490 491
490 575
491 492
492 540
492 541
493 494
493 577
494 495
495 578
496 497
496 555
496 556
497 498
498 569
499 500
499 573
500 501
501 542
501 543
502 503
502 576
503 504
504 549
504 550
505 506
505 564
505 565
506 507
507 582
508 509
508 557
508 558
509 510
510 580
511 512
511 571
512 513
513 560
513 561
514 515
514 584
515 516
516 585
517 566
518 567
519 651
519 652
520 537
520 538
521 633
521 634
522 570
523 572
524 539
524 540
525 574
526 561
526 562
527 543
527 544
528 579
529 581
530 739
530 740
531 558
531 559
532 642
532 643
533 546
533 547
534 583
535 551
535 552
536 537
536 614
537 538
538 596
538 597
539 540
539 618
540 541
541 586
541 587
542 543
542 592
542 593
543 544
544 623
545 546
545 602
545 603
546 547
547 629
548 549
548 620
549 550
550 625
551 552
551 630
552 553
553 607
553 608
554 555
554 613
555 556
556 616
557 558
557 627
558 559
559 611
559 612
560 561
560 604
560 605
561 562
562 621
563 564
563 590
563 591
564 565
565 628
566 598
566 599
567 703
567 704
568 615
569 595
569 596
570 780
570 781
571 617
572 605
572 606
573 619
574 593
574 594
575 622
576 624
577 626
578 589
578 590
579 709
579 710
580 601
580 602
581 697
581 698
582 610
582 611
583 693
583 694
584 631
585 632
586 587
586 671
587 588
588 639
588 640
589 590
589 674
590 591
591 637
591 638
592 593
592 634
592 635
593 594
594 668
595 596
595 648
595 649
596 597
597 666
598 599
598 663
599 600
600 654
600 655
601 602
601 675
602 603
603 646
603 647
604 605
604 652
604 653
605 606
606 667
607 608
607 679
608 609
609 680
610 611
610 660
610 661
611 612
612 677
613 664
614 655
614 656
615 729
615 730
616 665
617 753
617 754
618 649
618 650
619 741
619 742
620 669
621 670
622 636
622 637
623 672
624 645
624 646
625 673
626 658
626 659
627 640
627 641
628 676
629 678
630 661
630 662
631 756
631 757
632 643
632 644
633 634
633 682
633 683
634 635
635 717
636 637
636 718
637 638
638 708
638 709
639 640
639 687
639 688
640 641
641 723
642 643
642 700
642 701
643 644
644 726
645 646
645 720
646 647
647 696
647 697
648 649
648 715
649 650
650 685
650 686
651 652
651 714
652 653
653 716
654 655
654 712
655 656
656 713
657 658
657 705
657 706
658 659
659 721
660 661
660 725
661 662
662 694
662 695
663 711
664 702
664 703
665 798
665 799
666 681
666 682
667 684
667 685
668 690
668 691
669 691
669 692
670 706
670 707
671 719
672 688
672 689
673 840
673 841
674 722
675 724
676 807
676 808
677 699
677 700
678 792
678 793
679 727
680 728
681 682
681 763
682 683
683 730
683 731
684 685
684 732
684 733
685 686
686 765
687 688
687 742
687 743
688 689
689 769
690 691
690 744
690 745
691 692
692 767
693 694
693 776
694 695
695 777
696 697
696 773
697 698
698 774
699 700
699 775
700 701
701 748
701 749
702 703
702 760
703 704
704 735
704 736
705 706
705 754
705 755
706 707
707 768
708 709
708 771
709 710
710 750
710 751
711 849
711 850
712 759
713 761
714 762
715 736
715 737
716 764
717 766
718 733
718 734
719 831
719 832
720 745
720 746
721 770
722 738
722 739
723 772
724 747
724 748
725 751
725 752
726 778
727 941
727 942
728 757
728 758
729 730
729 810
730 731
731 779
731 780
732 733
732 814
733 734
734 804
734 805
735 736
735 782
735 783
736 737
737 811
738 739
738 819
739 740
740 806
740 807
741 742
741 786
741 787
742 743
743 818
744 745
744 815
745 746
746 789
746 790
747 748
747 821
748 749
749 791
749 792
750 751
750 800
750 801
751 752
752 824
753 754
753 813
754 755
755 817
756 757
756 795
756 796
757 758
758 827
759 988
759 989
760 809
761 783
761 784
762 797
762 798
763 812
764 901
764 902
765 785
765 786
766 889
766 890
767 816
768 803
768 804
769 788
769 789
770 882
770 883
771 820
772 801
772 802
773 822
774 823
775 825
776 826
777 794
777 795
778 904
778 905
779 780
779 862
780 781
781 852
781 853
782 783
782 850
782 851
783 784
784 858
785 786
785 864
786 787
787 829
787 830
788 789
788 834
788 835
789 790
790 868
791 792
791 872
792 793
793 873
794 795
794 874
795 796
796 844
796 845
797 798
797 860
798 799
799 837
799 838
800 801
800 832
800 833
801 802
802 869
803 804
803 855
803 856
804 805
805 866
806 807
806 870
807 808
808 846
808 847
809 943
809 944
810 859
811 861
812 828
812 829
813 863
814 838
814 839
815 853
815 854
816 937
816 938
817 865
818 867
819 856
819 857
820 952
820 953
821 835
821 836
822 934
822 935
823 841
823 842
824 871
825 843
825 844
826 847
826 848
827 875
828 829
828 909
829 830
830 888
830 889
831 832
831 880
831 881
832 833
833 917
834 835
834 916
835 836
836 898
836 899
837 838
837 885
837 886
838 839
839 912
840 841
840 892
840 893
841 842
842 918
843 844
843 920
844 845
845 903
845 904
846 847
846 894
846 895
847 848
848 923
849 850
849 906
850 851
851 907
852 853
852 911
853 854
854 914
855 856
855 915
856 857
857 883
857 884
858 876
858 877
859 877
859 878
860 908
861 886
861 887
862 910
863 900
863 901
864 913
865 1046
865 1047
866 879
866 880
867 976
867 977
868 891
868 892
869 897
869 898
870 919
871 895
871 896
872 921
873 922
874 924
875 997
875 998
876 877
876 925
876 926
877 878
878 957
879 880
879 964
880 881
881 929
881 930
882 883
882 966
883 884
884 967
885 886
885 944
885 945
886 887
887 958
888 889
888 962
889 890
890 931
890 932
891 892
891 965
892 893
893 938
893 939
894 895
894 953
894 954
895 896
896 971
897 898
897 946
897 947
898 899
899 969
900 901
900 960
901 902
902 949
902 950
903 904
903 973
904 905
905 974
906 955
907 956
908 1040
908 1041
909 926
909 927
910 1022
910 1023
911 959
912 961
913 928
913 929
914 963
915 950
915 951
916 932
916 933
917 968
918 970
919 1128
919 1129
920 947
920 948
921 1031
921 1032
922 935
922 936
923 972
924 940
924 941
925 926
925 1003
926 927
927 985
927 986
928 929
928 1007
929 930
930 975
930 976
931 932
931 981
931 982
932 933
933 1012
934 935
934 991
934 992
935 936
936 1018
937 938
937 1009
938 939
939 1014
940 941
940 1019
941 942
942 996
942 997
943 944
943 1002
944 945
945 1005
946 947
946 1016
947 948
948 1000
948 1001
949 950
949 993
949 994
950 951
951 1010
952 953
952 979
952 980
953 954
954 1017
955 987
955 988
956 1092
956 1093
957 1004
958 984
958 985
959 1169
959 1170
960 1006
961 994
961 995
962 1008
963 982
963 983
964 1011
965 1013
966 1015
967 978
967 979
968 1098
968 1099
969 990
969 991
970 1086
970 1087
971 999
971 1000
972 1082
972 1083
973 1020
974 1021
975 976
975 1060
976 977
977 1028
977 1029
978 979
978 1063
979 980
980 1026
980 1027
981 982
981 1023
981 1024
982 983
983 1057
984 985
984 1037
984 1038
985 986
986 1055
987 988
987 1052
988 989
989 1043
989 1044
990 991
990 1064
991 992
992 1035
992 1036
993 994
993 1041
993 1042
994 995
995 1056
996 997
996 1068
997 998
998 1069
999 1000
999 1049
999 1050
1000 1001
1001 1066
1002 1053
1003 1044
1003 1045
1004 1118
1004 1119
1005 1054
1006 1142
1006 1143
1007 1038
1007 1039
1008 1130
1008 1131
1009 1058
1010 1059
1011 1025
1011 1026
1012 1061
1013 1034
1013 1035
1014 1062
1015 1047
1015 1048
1016 1029
1016 1030
1017 1065
1018 1067
1019 1050
1019 1051
1020 1145
1020 1146
1021 1032
1021 1033
1022 1023
1022 1071
1022 1072
1023 1024
1024 1106
1025 1026
1025 1107
1026 1027
1027 1097
1027 1098
1028 1029
1028 1076
1028 1077
1029 1030
1030 1112
1031 1032
1031 1089
1031 1090
1032 1033
1033 1115
1034 1035
1034 1109
1035 1036
1036 1085
1036 1086
1037 1038
1037 1104
1038 1039
1039 1074
1039 1075
1040 1041
1040 1103
1041 1042
1042 1105
1043 1044
1043 1101
1044 1045
1045 1102
1046 1047
1046 1094
1046 1095
1047 1048
1048 1110
1049 1050
1049 1114
1050 1051
1051 1083
1051 1084
1052 1100
1053 1091
1053 1092
1054 1187
1054 1188
1055 1070
1055 1071
1056 1073
1056 1074
1057 1079
1057 1080
1058 1080
1058 1081
1059 1095
1059 1096
1060 1108
1061 1077
1061 1078
1062 1229
1062 1230
1063 1111
1064 1113
1065 1196
1065 1197
1066 1088
1066 1089
1067 1181
1067 1182
1068 1116
1069 1117
1070 1071
1070 1152
1071 1072
1072 1119
1072 1120
1073 1074
1073 1121
1073 1122
1074 1075
1075 1154
1076 1077
1076 1131
1076 1132
1077 1078
1078 1158
1079 1080
1079 1133
1079 1134
1080 1081
1081 1156
1082 1083
1082 1165
1083 1084
1084 1166
1085 1086
1085 1162
1086 1087
1087 1163
1088 1089
1088 1164
1089 1090
1090 1137
1090 1138
1091 1092
1091 1149
1092 1093
1093 1124
1093 1125
1094 1095
1094 1143
1094 1144
1095 1096
1096 1157
1097 1098
1097 1160
1098 1099
1099 1139
1099 1140
1100 1238
1100 1239
1101 1148
1102 1150
1103 1151
1104 1125
1104 1126
1105 1153
1106 1155
1107 1122
1107 1123
1108 1220
1108 1221
1109 1134
1109 1135
1110 1159
1111 1127
1111 1128
1112 1161
1113 1136
1113 1137
1114 1140
1114 1141
1115 1167
1116 1311
1117 1146
1117 1147
1118 1119
1118 1199
1119 1120
1120 1168
1120 1169
1121 1122
1121 1203
1122 1123
1123 1193
1123 1194
1124 1125
1124 1171
1124 1172
1125 1126
1126 1200
1127 1128
1127 1208
1128 1129
1129 1195
1129 1196
1130 1131
1130 1175
1130 1176
1131 1132
1132 1207
1133 1134
1133 1204
1134 1135
1135 1178
1135 1179
1136 1137
1136 1210
1137 1138
1138 1180
1138 1181
1139 1140
1139 1189
1139 1190
1140 1141
1141 1213
1142 1143
1142 1202
1143 1144
1144 1206
1145 1146
1145 1184
1145 1185
1146 1147
1147 1216
1148 1266
1149 1198
1150 1172
1150 1173
1151 1186
1151 1187
1152 1201
1153 1278
1154 1174
1154 1175
1155 1282
1156 1205
1157 1192
1157 1193
1158 1177
1158 1178
1159 1293
1160 1209
1161 1190
1161 1191
1162 1211
1163 1212
1164 1214
1165 1215
1166 1183
1166 1184
1167 1310
1168 1169
1168 1251
1169 1170
1170 1241
1170 1242
1171 1172
1171 1239
1171 1240
1172 1173
1173 1247
1174 1175
1174 1253
1175 1176
1176 1218
1176 1219
1177 1178
1177 1223
1177 1224
1178 1179
1179 1257
1180 1181
1180 1261
1181 1182
1182 1262
1183 1184
1183 1263
1184 1185
1185 1233
1185 1234
1186 1187
1186 1249
1187 1188
1188 1226
1188 1227
1189 1190
1189 1221
1189 1222
1190 1191
1191 1258
1192 1193
1192 1244
1192 1245
1193 1194
1194 1255
1195 1196
1195 1259
1196 1197
1197 1235
1197 1236
1198 1267
1199 1248
1200 1250
1201 1217
1201 1218
1202 1252
1203 1227
1203 1228
1204 1242
1204 1243
1205 1284
1206 1254
1207 1256
1208 1245
1208 1246
1209 1295
1210 1224
1210 1225
1211 1299
1212 1230
1212 1231
1213 1260
1214 1232
1214 1233
1215 1236
1215 1237
1216 1264
1217 1218
1217 1274
1218 1219
1219 1281
1220 1221
1220 1288
1221 1222
1222 1296
1223 1224
1223 1290
1224 1225
1225 1298
1226 1227
1226 1272
1227 1228
1228 1279
1229 1230
1229 1292
1230 1231
1231 1300
1232 1233
1232 1304
1233 1234
1234 1309
1235 1236
1235 1302
1236 1237
1237 1307
1238 1239
1238 1265
1239 1240
1240 1268
1241 1242
1241 1276
1242 1243
1243 1283
1244 1245
1244 1286
1245 1246
1246 1294
1247 1269
1248 1270
1249 1271
1250 1273
1251 1275
1252 1277
1253 1280
1254 1285
1255 1287
1256 1289
1257 1291
1258 1297
1259 1301
1260 1303
1261 1305
1262 1306
1263 1308
1264 1312
